proyfinal/src/viki/013/andrea/andrea-localstore/experimentInOfficeAgust.take6/worker_1/7273231d-13e4-4526-91cc-13d999108ea4.als.cnf.out
Reading from standard input... Use '--help' for help.
============================[ Problem Statistics ]=============================
|                                                                             |
|  Number of variables:         87638                                         |
|  Number of clauses:          161767                                         |
|  Parse time:                   0.04 s                                       |
|                                                                             |
============================[ Search Statistics ]==============================
| Conflicts |          ORIGINAL         |          LEARNT          | Progress |
|           |    Vars  Clauses Literals |    Limit  Clauses Lit/Cl |          |
===============================================================================
|       100 |   63828   110331   275805 |    40454      100      9 | 27.169 % |
|       250 |   63828   110331   275805 |    44500      250     22 | 27.169 % |
|       475 |   63828   110331   275805 |    48950      475     35 | 27.169 % |
|       812 |   63828   110331   275805 |    53845      812     52 | 27.169 % |
|      1318 |   63828   110331   275805 |    59229     1318     67 | 27.169 % |
|      2077 |   63828   110331   275805 |    65152     2077     67 | 27.169 % |
|      3216 |   63828   110331   275805 |    71667     3216    104 | 27.169 % |
|      4924 |   63763   110129   275351 |    78834     4917     93 | 27.243 % |
|      7486 |   63734   109903   274830 |    86718     7478     98 | 27.276 % |
|     11330 |   63680   109685   274306 |    95390    10793    107 | 27.337 % |
|     17096 |   49492    67229   169933 |   104929    15194     95 | 43.527 % |
===============================================================================
restarts              : 69
conflicts             : 19951          (5808 /sec)
decisions             : 63599          (0.00 % random) (18514 /sec)
propagations          : 31027072       (9032222 /sec)
conflict literals     : 1695477        (51.42 % deleted)
Memory used           : 39.00 MB
CPU time              : 3.43515 s

INDETERMINATE
